Optimal - objective value 20233.00000000
      0 x0_1                   1                       0
      2 x0_3                   1         -3.97205464519564e-15
     10 x1_2                   1                       0
     22 x2_5                   1         -3.97205464519564e-15
     32 x3_6                   1         2.29187553027788e-12
     36 x4_0                   1                      35
     52 x5_8                   1                       0
     62 x6_9                   1                       0
     67 x7_4                   1         -3.97205464519564e-15
     79 x8_7                   1                       0
     81 x9_0                   1         24.9999999999994
     90 u1                     2                       0
     91 u2                     5                       0
     92 u3       2.99999999999999                       0
     93 u4                    20                       0
     94 u5       8.99999999999999                       0
     95 u6       5.99999999999999                       0
     96 u7                    18                       0
     97 u8                    12                       0
     98 u9       8.99999999999999                       0
